Primitive cell
   1.000000000
      1.48275181516    0.856067159623    4.84264714976
      -1.48275181516    0.856067159623    4.84264714976
      0.0    -1.71213431925    4.84264714976
    Ni    O
    2    2
Selective dynamics
Direct
    0.5    0.5    0.5  T  T  T ! Ni1_up
    1.0    0.0    0.0  T  T  T ! Ni1_down
    0.75    0.75    0.75  T  T  T ! O1
    0.25    0.25    0.25  T  T  T ! O1
