cif to poscar
   1.000000000
      5.43054    0.0    0.0
      3.32524671432e-16    5.43054    0.0
      3.32524671432e-16    3.32524671432e-16    5.43054
    Si
    8
Selective dynamics
Direct
    0.25    0.25    0.25  T  T  T ! Si1
    -0.0    -0.0    0.0  T  T  T ! Si1
    0.25    0.75    0.75  T  T  T ! Si1
    -0.0    0.5    0.5  T  T  T ! Si1
    0.75    0.25    0.75  T  T  T ! Si1
    0.5    -0.0    0.5  T  T  T ! Si1
    0.75    0.75    0.25  T  T  T ! Si1
    0.5    0.5    0.0  T  T  T ! Si1
